
Gurobi 11.0.0 (linux64) logging started Sun Aug  4 13:49:31 2024

Set parameter LogFile to value "gurobi.log"
Set parameter InfUnbdInfo to value 1
Gurobi Optimizer version 11.0.0 build v11.0.0rc2 (linux64 - "Ubuntu 22.04.4 LTS")

CPU model: AMD EPYC 7V13 64-Core Processor, instruction set [SSE2|AVX|AVX2]
Thread count: 128 physical cores, 128 logical processors, using up to 32 threads

Optimize a model with 58 rows, 154 columns and 139 nonzeros
Model fingerprint: 0x4558822a
Model has 105 quadratic constraints
Model has 2 general constraints
Variable types: 42 continuous, 112 integer (0 binary)
Coefficient statistics:
  Matrix range     [1e+00, 2e+05]
  QMatrix range    [1e+00, 2e+05]
  QLMatrix range   [1e+00, 3e+05]
  Objective range  [1e+00, 1e+00]
  Bounds range     [1e+00, 3e+10]
  RHS range        [1e+00, 5e+05]
  QRHS range       [1e+00, 5e+05]
Warning: Model contains large bounds
         Consider reformulating model or setting NumericFocus parameter
         to avoid numerical issues.
Using branch priorities (all 0).
Presolve added 49 rows and 59 columns
Presolve time: 0.00s
Presolved: 379 rows, 233 columns, 2080 nonzeros
Presolved model has 8 SOS constraint(s)
Presolved model has 59 bilinear constraint(s)
Warning: Model contains variables with very large bounds participating
         in product terms.
         Presolve was not able to compute smaller bounds for these variables.
         Consider bounding these variables or reformulating the model.


Solving non-convex MIQCP

Variable types: 125 continuous, 108 integer (22 binary)

Root relaxation: objective 1.628526e+03, 119 iterations, 0.00 seconds (0.00 work units)

    Nodes    |    Current Node    |     Objective Bounds      |     Work
 Expl Unexpl |  Obj  Depth IntInf | Incumbent    BestBd   Gap | It/Node Time

     0     0 1628.52564    0   56          - 1628.52564      -     -    0s
     0     0 1630.52698    0   47          - 1630.52698      -     -    0s
     0     0 1630.52698    0   47          - 1630.52698      -     -    0s
H    0     0                    1.280067e+10 1630.52698   100%     -    0s
H    0     0                    6.081030e+09 1630.52698   100%     -    0s
     0     0 2048.29065    0  100 6.0810e+09 2048.29065   100%     -    0s
     0     0 2048.29065    0  100 6.0810e+09 2048.29065   100%     -    0s
     0     0 2248.65751    0  101 6.0810e+09 2248.65751   100%     -    0s
     0     0 2443.10622    0   92 6.0810e+09 2443.10622   100%     -    0s
     0     0 2448.82881    0   95 6.0810e+09 2448.82881   100%     -    0s
     0     0 2460.43078    0   96 6.0810e+09 2460.43078   100%     -    0s
H    0     0                    1520731.8412 2461.51204   100%     -    0s
     0     0 2464.42883    0   98 1520731.84 2464.42883   100%     -    0s
     0     0 2466.47371    0  115 1520731.84 2466.47371   100%     -    0s
H    0     0                    1520323.8412 2466.95575   100%     -    0s
H    0     0                    1362294.0000 2466.95575   100%     -    0s
     0     0 2467.99365    0  117 1362294.00 2467.99365   100%     -    0s
H    0     0                    722385.84120 2467.99365   100%     -    0s
     0     0 2475.25194    0  114 722385.841 2475.25194   100%     -    0s
     0     0 2482.62918    0  122 722385.841 2482.62918   100%     -    0s
H    0     0                    276362.99997 3538.58534  98.7%     -    0s
     0     0 6349.58521    0  109 276363.000 6349.58521  97.7%     -    0s
H    0     0                    275953.00000 6349.58521  97.7%     -    0s
     0     0 6349.58521    0  108 275953.000 6349.58521  97.7%     -    0s
     0     0 6349.58521    0  118 275953.000 6349.58521  97.7%     -    0s
     0     0 6612.36178    0  118 275953.000 6612.36178  97.6%     -    0s
     0     0 7445.30872    0  107 275953.000 7445.30872  97.3%     -    0s
H    0     0                    275914.00000 7445.30872  97.3%     -    0s
     0     0 8283.07617    0  108 275914.000 8283.07617  97.0%     -    0s
     0     0 11533.9718    0  119 275914.000 11533.9718  95.8%     -    0s
     0     0 18602.3214    0  119 275914.000 18602.3214  93.3%     -    0s
     0     0 23482.5491    0  109 275914.000 23482.5491  91.5%     -    0s
     0     0 35716.4597    0   99 275914.000 35716.4597  87.1%     -    0s
H    0     0                    185504.25908 35716.4597  80.7%     -    0s
H    0     0                    107504.25910 35716.4597  66.8%     -    0s
     0     2 35716.4597    0   99 107504.259 35716.4597  66.8%     -    0s
H   49    51                    102382.41970 80837.4271  21.0%  21.3    0s
*  379   271              15    101146.56485 80853.6965  20.1%   6.6    1s
*  381   317              14    94948.414289 80854.7196  14.8%   6.6    1s
H  385   317                    83765.811204 80854.7196  3.48%   6.6    1s
* 2126   776              22    83276.851530 80981.5207  2.76%   3.9    1s
* 3071   621              14    83248.882365 81337.6317  2.30%   3.8    1s
* 3237   314              21    83132.437328 81398.2429  2.09%   3.8    2s
* 3693   314              18    82973.387686 81841.3620  1.36%   3.7    2s

Cutting planes:
  Learned: 3
  Gomory: 7
  Implied bound: 16
  MIR: 31
  StrongCG: 1
  Flow cover: 4
  Zero half: 2
  RLT: 39
  Relax-and-lift: 2

Explored 4257 nodes (15627 simplex iterations) in 2.10 seconds (0.18 work units)
Thread count was 32 (of 128 available processors)

Solution count 10: 82973.4 83132.4 83248.9 ... 185504

Optimal solution found (tolerance 1.00e-04)
Warning: max constraint violation (2.4533e-03) exceeds tolerance
Warning: max general constraint violation (2.4533e-03) exceeds tolerance
  Piecewise linearization of function constraints often causes big violation.
  Try to adjust the settings of the related parameters, such as FuncPieces.
Best objective 8.297338768615e+04, best bound 8.297338768615e+04, gap 0.0000%

Gurobi 11.0.0 (linux64) logging started Wed Aug  7 14:37:53 2024

Set parameter LogFile to value "gurobi.log"
Set parameter InfUnbdInfo to value 1
Gurobi Optimizer version 11.0.0 build v11.0.0rc2 (linux64 - "Ubuntu 22.04.4 LTS")

CPU model: AMD EPYC 7V13 64-Core Processor, instruction set [SSE2|AVX|AVX2]
Thread count: 128 physical cores, 128 logical processors, using up to 32 threads

Optimize a model with 58 rows, 154 columns and 139 nonzeros
Model fingerprint: 0xecc2cdc7
Model has 107 quadratic constraints
Model has 2 general constraints
Variable types: 42 continuous, 112 integer (0 binary)
Coefficient statistics:
  Matrix range     [1e+00, 2e+05]
  QMatrix range    [1e+00, 2e+05]
  QLMatrix range   [1e+00, 3e+05]
  Objective range  [1e+00, 1e+00]
  Bounds range     [1e+00, 3e+10]
  RHS range        [1e+00, 5e+05]
  QRHS range       [1e+00, 5e+05]
Warning: Model contains large bounds
         Consider reformulating model or setting NumericFocus parameter
         to avoid numerical issues.
Using branch priorities (all 0).
Presolve added 50 rows and 60 columns
Presolve time: 0.00s
Presolved: 380 rows, 234 columns, 2082 nonzeros
Presolved model has 8 SOS constraint(s)
Presolved model has 59 bilinear constraint(s)
Warning: Model contains variables with very large bounds participating
         in product terms.
         Presolve was not able to compute smaller bounds for these variables.
         Consider bounding these variables or reformulating the model.


Solving non-convex MIQCP

Variable types: 126 continuous, 108 integer (22 binary)

Root relaxation: objective 1.628526e+03, 112 iterations, 0.00 seconds (0.00 work units)

    Nodes    |    Current Node    |     Objective Bounds      |     Work
 Expl Unexpl |  Obj  Depth IntInf | Incumbent    BestBd   Gap | It/Node Time

     0     0 1628.52564    0   54          - 1628.52564      -     -    0s
     0     0 1630.60220    0   60          - 1630.60220      -     -    0s
     0     0 2022.45419    0   91          - 2022.45419      -     -    0s
     0     0 2022.45419    0   91          - 2022.45419      -     -    0s
H    0     0                    1363437.0000 2230.35680   100%     -    0s
H    0     0                    1362824.0000 2230.35680   100%     -    0s
     0     0 2230.35680    0   92 1362824.00 2230.35680   100%     -    0s
     0     0 2449.46530    0   82 1362824.00 2449.46530   100%     -    0s
H    0     0                    1362619.0000 2451.45526   100%     -    0s
     0     0 2452.41274    0   98 1362619.00 2452.41274   100%     -    0s
     0     0 2454.42186    0   99 1362619.00 2454.42186   100%     -    0s
     0     0 2466.99508    0  117 1362619.00 2466.99508   100%     -    0s
H    0     0                    1362310.8412 2467.49728   100%     -    0s
     0     0 2467.49728    0  117 1362310.84 2467.49728   100%     -    0s
H    0     0                    871412.17338 2467.49728   100%     -    0s
H    0     0                    871207.17338 2467.49728   100%     -    0s
     0     0 2468.59398    0  117 871207.173 2468.59398   100%     -    0s
     0     0 2546.21144    0  110 871207.173 2546.21144   100%     -    0s
     0     0 3193.17796    0  110 871207.173 3193.17796   100%     -    0s
     0     0 4374.30056    0  110 871207.173 4374.30056  99.5%     -    0s
     0     0 4578.77426    0  110 871207.173 4578.77426  99.5%     -    0s
     0     0 6359.76866    0   94 871207.173 6359.76866  99.3%     -    0s
     0     0 6781.10099    0  110 871207.173 6781.10099  99.2%     -    0s
H    0     0                    391507.17338 6781.10099  98.3%     -    0s
     0     0 8011.89050    0  104 391507.173 8011.89050  98.0%     -    0s
     0     0 8011.89050    0  104 391507.173 8011.89050  98.0%     -    0s
     0     0 18006.1558    0  104 391507.173 18006.1558  95.4%     -    0s
     0     0 46751.0808    0  104 391507.173 46751.0808  88.1%     -    0s
     0     0 72102.8781    0  102 391507.173 72102.8781  81.6%     -    0s
     0     0 80784.6718    0   92 391507.173 80784.6718  79.4%     -    0s
H    0     0                    112160.23500 80784.6718  28.0%     -    0s
     0     1 80794.3459    0   92 112160.235 80794.3459  28.0%     -    0s
*  151   124               8    84196.409456 80872.2280  3.95%  11.8    0s
*  833   200              24    84196.395395 80872.2280  3.95%   6.2    0s
H 1122   233                    84074.306169 80982.3678  3.68%   5.9    0s
* 1532   291              29    83899.754262 81021.8114  3.43%   5.5    0s
* 1840   291              27    83896.754262 81031.8200  3.41%   5.3    0s
* 2968   233              31    83694.104115 81318.1419  2.84%   5.2    0s

Cutting planes:
  Learned: 2
  Gomory: 5
  Implied bound: 16
  MIR: 43
  StrongCG: 1
  Flow cover: 3
  Inf proof: 5
  RLT: 29
  Relax-and-lift: 3

Explored 3789 nodes (20012 simplex iterations) in 0.79 seconds (0.17 work units)
Thread count was 32 (of 128 available processors)

Solution count 10: 83694.1 83896.8 83899.8 ... 871412

Optimal solution found (tolerance 1.00e-04)
Warning: max constraint violation (1.7494e-03) exceeds tolerance
Warning: max general constraint violation (1.7494e-03) exceeds tolerance
  Piecewise linearization of function constraints often causes big violation.
  Try to adjust the settings of the related parameters, such as FuncPieces.
Best objective 8.369410411537e+04, best bound 8.369410411537e+04, gap 0.0000%

Gurobi 11.0.0 (linux64) logging started Wed Aug  7 14:43:02 2024

Set parameter LogFile to value "gurobi.log"
Set parameter InfUnbdInfo to value 1
Gurobi Optimizer version 11.0.0 build v11.0.0rc2 (linux64 - "Ubuntu 22.04.4 LTS")

CPU model: AMD EPYC 7V13 64-Core Processor, instruction set [SSE2|AVX|AVX2]
Thread count: 128 physical cores, 128 logical processors, using up to 32 threads

Optimize a model with 58 rows, 154 columns and 139 nonzeros
Model fingerprint: 0xa3591910
Model has 107 quadratic constraints
Model has 2 general constraints
Variable types: 42 continuous, 112 integer (0 binary)
Coefficient statistics:
  Matrix range     [1e+00, 2e+05]
  QMatrix range    [1e+00, 2e+05]
  QLMatrix range   [1e+00, 3e+05]
  Objective range  [1e+00, 1e+00]
  Bounds range     [1e+00, 3e+10]
  RHS range        [1e+00, 5e+05]
  QRHS range       [1e+00, 5e+05]
Warning: Model contains large bounds
         Consider reformulating model or setting NumericFocus parameter
         to avoid numerical issues.
Using branch priorities (all 0).
Presolve added 48 rows and 55 columns
Presolve time: 0.00s
Presolved: 378 rows, 229 columns, 2016 nonzeros
Presolved model has 8 SOS constraint(s)
Presolved model has 59 bilinear constraint(s)
Warning: Model contains variables with very large bounds participating
         in product terms.
         Presolve was not able to compute smaller bounds for these variables.
         Consider bounding these variables or reformulating the model.


Solving non-convex MIQCP

Variable types: 121 continuous, 108 integer (22 binary)

Root relaxation: objective 1.628526e+03, 136 iterations, 0.00 seconds (0.00 work units)

    Nodes    |    Current Node    |     Objective Bounds      |     Work
 Expl Unexpl |  Obj  Depth IntInf | Incumbent    BestBd   Gap | It/Node Time

     0     0 1628.52564    0   61          - 1628.52564      -     -    0s
     0     0 1631.52792    0   71          - 1631.52792      -     -    0s
     0     0 1632.52792    0   70          - 1632.52792      -     -    0s
     0     0 2441.95112    0   93          - 2441.95112      -     -    0s
H    0     0                    890994.84120 2442.07243   100%     -    0s
H    0     0                    890603.84120 2442.07243   100%     -    0s
     0     0 2460.35412    0  105 890603.841 2460.35412   100%     -    0s
     0     0 2639.29890    0  114 890603.841 2639.29890   100%     -    0s
     0     0 2639.29890    0  119 890603.841 2639.29890   100%     -    0s
H    0     0                    539002.00000 2639.29890   100%     -    0s
H    0     0                    538484.00000 2639.29890   100%     -    0s
     0     0 2639.29890    0  118 538484.000 2639.29890   100%     -    0s
H    0     0                    357709.00000 2639.29890  99.3%     -    0s
     0     0 2696.16766    0  117 357709.000 2696.16766  99.2%     -    0s
     0     0 5954.26876    0  117 357709.000 5954.26876  98.3%     -    0s
     0     0 12937.5171    0  116 357709.000 12937.5171  96.4%     -    0s
     0     0 16010.5789    0  116 357709.000 16010.5789  95.5%     -    0s
     0     0 30080.4509    0  115 357709.000 30080.4509  91.6%     -    0s
H    0     0                    165934.00000 45742.2817  72.4%     -    0s
     0     0 45742.2817    0  118 165934.000 45742.2817  72.4%     -    0s
     0     0 50232.1399    0  118 165934.000 50232.1399  69.7%     -    0s
     0     0 52486.1367    0  122 165934.000 52486.1367  68.4%     -    0s
H    0     0                    165729.00000 68725.6741  58.5%     -    0s
     0     0 69084.7632    0  122 165729.000 69084.7632  58.3%     -    0s
     0     0 80834.8934    0  122 165729.000 80834.8934  51.2%     -    0s
     0     0 80880.0093    0  120 165729.000 80880.0093  51.2%     -    0s
     0     0 80935.2741    0  120 165729.000 80935.2741  51.2%     -    0s
     0     0 80999.3126    0  104 165729.000 80999.3126  51.1%     -    0s
H    0     0                    107509.00000 80999.3126  24.7%     -    0s
H    0     1                    103409.00000 80999.3126  21.7%     -    0s
     0     1 80999.3126    0  104 103409.000 80999.3126  21.7%     -    0s
H   38    50                    102587.41970 80999.3126  21.0%  11.6    0s
*  153   145              10    86815.445037 80999.3126  6.70%   8.7    0s
*  182   145               9    86741.409456 80999.3126  6.62%   8.0    0s
*  232   139               9    86536.409456 80999.3126  6.40%   7.1    0s
*  555   274              18    85287.315699 80999.3126  5.03%   5.2    0s
*  658   245              20    85169.906243 80999.3126  4.90%   4.9    0s
* 1215   348              30    84006.614407 80999.3126  3.58%   4.1    0s

Cutting planes:
  Learned: 1
  Gomory: 7
  Implied bound: 13
  MIR: 43
  StrongCG: 1
  Flow cover: 4
  Inf proof: 1
  Mod-K: 1
  RLT: 35
  Relax-and-lift: 1

Explored 2566 nodes (8583 simplex iterations) in 0.71 seconds (0.14 work units)
Thread count was 32 (of 128 available processors)

Solution count 10: 84006.6 85169.9 85287.3 ... 165729

Optimal solution found (tolerance 1.00e-04)
Warning: max constraint violation (3.2691e-03) exceeds tolerance
Warning: max general constraint violation (3.2691e-03) exceeds tolerance
  Piecewise linearization of function constraints often causes big violation.
  Try to adjust the settings of the related parameters, such as FuncPieces.
Best objective 8.400661440656e+04, best bound 8.400661440656e+04, gap 0.0000%
